# GAUSS
# Simplified representation
print "Hello, World!"
